4262462
59,51,84,29,81,90,24,5,57,86,75,38,9,49,65,87,73,93,99,105,18,3,100,17,21,80,71,69,39,14,41,70,31,37,77,109,1,101,34,46,2,92,6,95,85,13,102,58,22,27,72,26,76,50,8,36,55,28,96,66,11,104,47,53,32,68,108,91,97,42,60,40,19,12,33,78,106,62,88,7,23,4,43,61,20,30,64,54,89,15,74,48,103,56,44,79,67,83,16,52,107,63,25,10,35,45,98,82,94,59